72 66988
31 8 60 23 7 27 64 48 54 18 10 70 17 67 30 61 62 72 56 26 47 14 38 65 4 44 51 35 21 22 33 55 46 57 42 15 29 28 1 16 9 6 71 66 40 68 52 49 39 59 13 20 19 58 53 2 32 63 50 37 36 41 5 12 34 3 43 24 25 69 11 45 
